# Objective value = 5.6237399999999870e+03
I_0_0 1547
I_0_1 1.9620000000000009e+03
I_0_2 1.6720000000000030e+03
I_0_3 2.3529999999999959e+03
I_1_0 34
I_1_1 0
I_1_2 3.4000000000000057e+01
I_1_3 -6.0151314129042389e-14
I_2_0 52
I_2_1 0
I_2_2 52
I_2_3 0
I_3_0 58
I_3_1 8.9085929147588122e-14
I_3_2 5.8000000000000028e+01
I_3_3 -1.0219367756709534e-13
I_4_0 88
I_4_1 4.4000000000000043e+01
I_4_2 87.9999999999991
I_4_3 44.000000000001
I_5_0 71
I_5_1 0
I_5_2 7.0999999999999986e+01
I_5_3 0
I_6_0 13
I_6_1 5.4123372450476381e-16
I_6_2 1.2999999999999757e+01
I_6_3 0
I_7_0 56
I_7_1 55.9999999999997
I_7_2 28
I_7_3 0
I_8_0 86
I_8_1 86
I_8_2 86
I_8_3 0
I_9_0 72
I_9_1 -8.2891818619927841e-13
I_9_2 7.1999999999999176e+01
I_9_3 8.30002733209767e-13
I_10_0 106
I_10_1 106
I_10_2 5.2999999999999936e+01
I_10_3 2.4957813593573519e-12
I_11_0 60
I_11_1 60
I_11_2 30
I_11_3 0
I_12_0 28
I_12_1 2.8000000000000167e+01
I_12_2 1.4000000000000002e+01
I_12_3 1.7763568394002505e-15
I_13_0 55
I_13_1 55
I_13_2 55
I_13_3 0
I_14_0 32
I_14_1 1.5999999999999938e+01
I_14_2 3.1999999999999936e+01
I_14_3 16
I_15_0 55
I_15_1 -2.5753965254728804e-13
I_15_2 5.4999999999999815e+01
I_15_3 1.8185453143360064e-13
q_1_0_0 0
q_1_0_1 1.4629808017629230e-12
q_1_0_2 -1.2074671746793481e-13
q_1_1_0 0
q_1_1_1 6.7999999999998536e+01
q_1_1_2 0
q_2_0_0 0
q_2_0_1 104
q_2_0_2 0
q_2_1_0 0
q_2_1_1 0
q_2_1_2 0
q_3_0_0 0
q_3_0_1 -2.3980817331903381e-14
q_3_0_2 -1.2684062871377382e-13
q_3_1_0 8.9085929147588122e-14
q_3_1_1 116
q_3_1_2 0
q_4_0_0 0
q_4_0_1 8.7999999999999048e+01
q_4_0_2 1.95110594347625e-12
q_4_1_0 4.0439664419698052e-14
q_4_1_1 0
q_4_1_2 -3.4083846855992306e-14
q_5_0_0 0
q_5_0_1 142
q_5_0_2 0
q_5_1_0 0
q_5_1_1 0
q_5_1_2 0
q_6_0_0 0
q_6_0_1 4.5519144009631418e-15
q_6_0_2 4.2965631052993558e-14
q_6_1_0 5.4123372450476381e-16
q_6_1_1 2.5999999999999996e+01
q_6_1_2 -4.2965631052993558e-14
q_7_0_0 27.9999999999997
q_7_0_1 0
q_7_0_2 0
q_7_1_0 0
q_7_1_1 0
q_7_1_2 0
q_8_0_0 86
q_8_0_1 86
q_8_0_2 0
q_8_1_0 0
q_8_1_1 0
q_8_1_2 0
q_9_0_0 -8.6580742575392833e-13
q_9_0_1 0
q_9_0_2 1.6582291095801338e-12
q_9_1_0 3.6889239554649957e-14
q_9_1_1 144
q_9_1_2 3.8676020857380255e-16
q_10_0_0 53
q_10_0_1 -6.8389738316909643e-14
q_10_0_2 3.0985513300462007e-12
q_10_1_0 0
q_10_1_1 0
q_10_1_2 -5.1596334042880488e-13
q_11_0_0 30
q_11_0_1 0
q_11_0_2 0
q_11_1_0 0
q_11_1_1 0
q_11_1_2 0
q_12_0_0 1.4000000000000167e+01
q_12_0_1 -1.6697754290362354e-13
q_12_0_2 0
q_12_1_0 0
q_12_1_1 0
q_12_1_2 0
q_13_0_0 55
q_13_0_1 55
q_13_0_2 -1.8207657603852567e-13
q_13_1_0 0
q_13_1_1 0
q_13_1_2 1.8207657603852567e-13
q_14_0_0 0
q_14_0_1 32
q_14_0_2 0
q_14_1_0 -6.2726673530560267e-14
q_14_1_1 0
q_14_1_2 6.3948846218409017e-14
q_15_0_0 -3.1389821297800324e-13
q_15_0_1 4.75175454539567e-14
q_15_0_2 0
q_15_1_0 5.6358560430715214e-14
q_15_1_1 1.0999999999999987e+02
q_15_1_2 3.6326497365735122e-13
y_0_0_0 1
y_0_0_1 1
y_0_0_2 1.9486347707177838e-14
y_0_1_0 9.19300122700362e-16
y_0_1_1 1
y_0_1_2 0
y_1_0_0 0
y_1_0_1 2.1648961947252543e-14
y_1_0_2 -1.7781360429651263e-15
y_1_1_0 0
y_1_1_1 9.9999999999997868e-01
y_1_1_2 0
y_2_0_0 0
y_2_0_1 1
y_2_0_2 0
y_2_1_0 0
y_2_1_1 0
y_2_1_2 0
y_3_0_0 0
y_3_0_1 1.1631099259586140e-15
y_3_0_2 -2.7407075850301289e-15
y_3_1_0 1.5359642956480712e-15
y_3_1_1 1
y_3_1_2 0
y_4_0_0 0
y_4_0_1 1
y_4_0_2 1.9343428374215233e-14
y_4_1_0 9.1908328226586484e-16
y_4_1_1 0
y_4_1_2 0
y_5_0_0 0
y_5_0_1 1
y_5_0_2 0
y_5_1_0 0
y_5_1_1 0
y_5_1_2 0
y_6_0_0 0
y_6_0_1 0
y_6_0_2 1.6549261960818740e-15
y_6_1_0 4.1633363423443370e-17
y_6_1_1 9.9999999999999978e-01
y_6_1_2 -1.6514567491299204e-15
y_7_0_0 9.9999999999998934e-01
y_7_0_1 0
y_7_0_2 3.5375049030004911e-15
y_7_1_0 0
y_7_1_1 0
y_7_1_2 0
y_8_0_0 1
y_8_0_1 1
y_8_0_2 0
y_8_1_0 0
y_8_1_1 0
y_8_1_2 0
y_9_0_0 -1.2025103135471227e-14
y_9_0_1 -1.2025103135471227e-14
y_9_0_2 1.1511624986582092e-14
y_9_1_0 5.1235054937013828e-16
y_9_1_1 1
y_9_1_2 0
y_10_0_0 1
y_10_0_1 -2.1163626406917047e-16
y_10_0_2 0
y_10_1_0 0
y_10_1_1 0
y_10_1_2 0
y_11_0_0 1
y_11_0_1 0
y_11_0_2 0
y_11_1_0 0
y_11_1_1 0
y_11_1_2 0
y_12_0_0 1.0000000000000120e+00
y_12_0_1 0
y_12_0_2 0
y_12_1_0 0
y_12_1_1 0
y_12_1_2 0
y_13_0_0 1
y_13_0_1 1
y_13_0_2 -1.6583956430338276e-15
y_13_1_0 0
y_13_1_1 0
y_13_1_2 1.6583956430338276e-15
y_14_0_0 0
y_14_0_1 1
y_14_0_2 0
y_14_1_0 -3.9204170956600167e-15
y_14_1_1 0
y_14_1_2 0
y_15_0_0 -5.7072402359636953e-15
y_15_0_1 3.0878077872387166e-16
y_15_0_2 0
y_15_1_0 1.0247010987402766e-15
y_15_1_1 9.9999999999999889e-01
y_15_1_2 3.3167912860676552e-15
x_0_1_0_0 8.2989171090730451e-15
x_0_1_0_1 0
x_0_1_0_2 7.6674777638174874e-16
x_0_1_1_0 0
x_0_1_1_1 9.9999999999995715e-01
x_0_1_1_2 0
x_0_2_0_0 0
x_0_2_0_1 0
x_0_2_0_2 0
x_0_2_1_0 0
x_0_2_1_1 0
x_0_2_1_2 0
x_0_3_0_0 0
x_0_3_0_1 1.0998146837692957e-15
x_0_3_0_2 0
x_0_3_1_0 0
x_0_3_1_1 0
x_0_3_1_2 0
x_0_4_0_0 0
x_0_4_0_1 0
x_0_4_0_2 0
x_0_4_1_0 0
x_0_4_1_1 0
x_0_4_1_2 0
x_0_5_0_0 0
x_0_5_0_1 0
x_0_5_0_2 0
x_0_5_1_0 0
x_0_5_1_1 0
x_0_5_1_2 0
x_0_6_0_0 0
x_0_6_0_1 0
x_0_6_0_2 0
x_0_6_1_0 0
x_0_6_1_1 0
x_0_6_1_2 0
x_0_7_0_0 -1.1518563880486e-15
x_0_7_0_1 0
x_0_7_0_2 -9.7491459349896559e-15
x_0_7_1_0 1.7867651802561113e-16
x_0_7_1_1 0
x_0_7_1_2 0
x_0_8_0_0 -3.2335245592207684e-15
x_0_8_0_1 9.9999999999997868e-01
x_0_8_0_2 0
x_0_8_1_0 0
x_0_8_1_1 0
x_0_8_1_2 3.3167912860676552e-15
x_0_9_0_0 -2.4050206270942454e-14
x_0_9_0_1 -1.2018164241567320e-14
x_0_9_0_2 2.3023249973164184e-14
x_0_9_1_0 0
x_0_9_1_1 1.0000000000000226e+00
x_0_9_1_2 -3.3167912860676552e-15
x_0_10_0_0 1.0000000000000202e+00
x_0_10_0_1 -4.2327252813834093e-16
x_0_10_0_2 -1.5037650611904487e-14
x_0_10_1_0 1.7867651802561113e-16
x_0_10_1_1 0
x_0_10_1_2 0
x_0_11_0_0 0
x_0_11_0_1 0
x_0_11_0_2 0
x_0_11_1_0 0
x_0_11_1_1 0
x_0_11_1_2 0
x_0_12_0_0 1.0000000000000016e+00
x_0_12_0_1 0
x_0_12_0_2 0
x_0_12_1_0 0
x_0_12_1_1 0
x_0_12_1_2 0
x_0_13_0_0 -2.2620794126737565e-14
x_0_13_0_1 0
x_0_13_0_2 0
x_0_13_1_0 0
x_0_13_1_1 0
x_0_13_1_2 0
x_0_14_0_0 0
x_0_14_0_1 9.9999999999999889e-01
x_0_14_0_2 0
x_0_14_1_0 0
x_0_14_1_1 0
x_0_14_1_2 0
x_0_15_0_0 0
x_0_15_0_1 1.2642664692918970e-14
x_0_15_0_2 2.5431046157819992e-15
x_0_15_1_0 0
x_0_15_1_1 -2.6367796834847468e-16
x_0_15_1_2 0
x_1_2_0_0 0
x_1_2_0_1 0
x_1_2_0_2 0
x_1_2_1_0 0
x_1_2_1_1 0
x_1_2_1_2 0
x_1_3_0_0 0
x_1_3_0_1 0
x_1_3_0_2 -4.1633363423443370e-17
x_1_3_1_0 0
x_1_3_1_1 1.0000000000000004e+00
x_1_3_1_2 0
x_1_4_0_0 0
x_1_4_0_1 0
x_1_4_0_2 0
x_1_4_1_0 0
x_1_4_1_1 0
x_1_4_1_2 0
x_1_5_0_0 0
x_1_5_0_1 0
x_1_5_0_2 0
x_1_5_1_0 0
x_1_5_1_1 0
x_1_5_1_2 0
x_1_6_0_0 0
x_1_6_0_1 0
x_1_6_0_2 0
x_1_6_1_0 0
x_1_6_1_1 -3.2612801348363973e-16
x_1_6_1_2 0
x_1_7_0_0 0
x_1_7_0_1 0
x_1_7_0_2 0
x_1_7_1_0 0
x_1_7_1_1 0
x_1_7_1_2 0
x_1_8_0_0 0
x_1_8_0_1 0
x_1_8_0_2 0
x_1_8_1_0 0
x_1_8_1_1 0
x_1_8_1_2 0
x_1_9_0_0 0
x_1_9_0_1 0
x_1_9_0_2 0
x_1_9_1_0 0
x_1_9_1_1 5.5511151231257827e-17
x_1_9_1_2 0
x_1_10_0_0 0
x_1_10_0_1 0
x_1_10_0_2 0
x_1_10_1_0 0
x_1_10_1_1 0
x_1_10_1_2 0
x_1_11_0_0 0
x_1_11_0_1 0
x_1_11_0_2 0
x_1_11_1_0 0
x_1_11_1_1 0
x_1_11_1_2 0
x_1_12_0_0 0
x_1_12_0_1 0
x_1_12_0_2 0
x_1_12_1_0 0
x_1_12_1_1 0
x_1_12_1_2 0
x_1_13_0_0 0
x_1_13_0_1 0
x_1_13_0_2 0
x_1_13_1_0 0
x_1_13_1_1 0
x_1_13_1_2 0
x_1_14_0_0 0
x_1_14_0_1 0
x_1_14_0_2 0
x_1_14_1_0 0
x_1_14_1_1 0
x_1_14_1_2 0
x_1_15_0_0 -1.1414480471927391e-14
x_1_15_0_1 0
x_1_15_0_2 -2.5431046157819992e-15
x_1_15_1_0 0
x_1_15_1_1 0
x_1_15_1_2 0
x_2_3_0_0 0
x_2_3_0_1 0
x_2_3_0_2 0
x_2_3_1_0 0
x_2_3_1_1 0
x_2_3_1_2 0
x_2_4_0_0 0
x_2_4_0_1 0
x_2_4_0_2 0
x_2_4_1_0 0
x_2_4_1_1 0
x_2_4_1_2 0
x_2_5_0_0 0
x_2_5_0_1 1
x_2_5_0_2 0
x_2_5_1_0 0
x_2_5_1_1 0
x_2_5_1_2 0
x_2_6_0_0 0
x_2_6_0_1 0
x_2_6_0_2 0
x_2_6_1_0 0
x_2_6_1_1 0
x_2_6_1_2 0
x_2_7_0_0 0
x_2_7_0_1 0
x_2_7_0_2 0
x_2_7_1_0 0
x_2_7_1_1 0
x_2_7_1_2 0
x_2_8_0_0 0
x_2_8_0_1 0
x_2_8_0_2 0
x_2_8_1_0 0
x_2_8_1_1 0
x_2_8_1_2 0
x_2_9_0_0 0
x_2_9_0_1 0
x_2_9_0_2 0
x_2_9_1_0 0
x_2_9_1_1 0
x_2_9_1_2 0
x_2_10_0_0 0
x_2_10_0_1 0
x_2_10_0_2 0
x_2_10_1_0 0
x_2_10_1_1 0
x_2_10_1_2 0
x_2_11_0_0 0
x_2_11_0_1 0
x_2_11_0_2 0
x_2_11_1_0 0
x_2_11_1_1 0
x_2_11_1_2 0
x_2_12_0_0 0
x_2_12_0_1 0
x_2_12_0_2 0
x_2_12_1_0 0
x_2_12_1_1 0
x_2_12_1_2 0
x_2_13_0_0 0
x_2_13_0_1 9.9999999999999856e-01
x_2_13_0_2 0
x_2_13_1_0 0
x_2_13_1_1 0
x_2_13_1_2 0
x_2_14_0_0 0
x_2_14_0_1 0
x_2_14_0_2 0
x_2_14_1_0 0
x_2_14_1_1 0
x_2_14_1_2 0
x_2_15_0_0 0
x_2_15_0_1 0
x_2_15_0_2 0
x_2_15_1_0 0
x_2_15_1_1 0
x_2_15_1_2 0
x_3_4_0_0 0
x_3_4_0_1 0
x_3_4_0_2 0
x_3_4_1_0 0
x_3_4_1_1 0
x_3_4_1_2 0
x_3_5_0_0 0
x_3_5_0_1 0
x_3_5_0_2 0
x_3_5_1_0 0
x_3_5_1_1 0
x_3_5_1_2 0
x_3_6_0_0 0
x_3_6_0_1 0
x_3_6_0_2 0
x_3_6_1_0 0
x_3_6_1_1 9.9999999999999978e-01
x_3_6_1_2 -3.3167912860676552e-15
x_3_7_0_0 0
x_3_7_0_1 0
x_3_7_0_2 0
x_3_7_1_0 0
x_3_7_1_1 0
x_3_7_1_2 0
x_3_8_0_0 0
x_3_8_0_1 0
x_3_8_0_2 0
x_3_8_1_0 0
x_3_8_1_1 0
x_3_8_1_2 0
x_3_9_0_0 0
x_3_9_0_1 0
x_3_9_0_2 0
x_3_9_1_0 0
x_3_9_1_1 0
x_3_9_1_2 0
x_3_10_0_0 0
x_3_10_0_1 0
x_3_10_0_2 0
x_3_10_1_0 0
x_3_10_1_1 0
x_3_10_1_2 0
x_3_11_0_0 0
x_3_11_0_1 0
x_3_11_0_2 0
x_3_11_1_0 0
x_3_11_1_1 0
x_3_11_1_2 0
x_3_12_0_0 0
x_3_12_0_1 0
x_3_12_0_2 0
x_3_12_1_0 0
x_3_12_1_1 0
x_3_12_1_2 0
x_3_13_0_0 0
x_3_13_0_1 0
x_3_13_0_2 0
x_3_13_1_0 0
x_3_13_1_1 0
x_3_13_1_2 0
x_3_14_0_0 0
x_3_14_0_1 -3.2959746043559335e-16
x_3_14_0_2 0
x_3_14_1_0 0
x_3_14_1_1 0
x_3_14_1_2 0
x_3_15_0_0 0
x_3_15_0_1 0
x_3_15_0_2 0
x_3_15_1_0 0
x_3_15_1_1 0
x_3_15_1_2 3.3167912860676552e-15
x_4_5_0_0 0
x_4_5_0_1 1.0000000000000187e+00
x_4_5_0_2 0
x_4_5_1_0 0
x_4_5_1_1 0
x_4_5_1_2 0
x_4_6_0_0 0
x_4_6_0_1 0
x_4_6_0_2 6.0645932720149176e-15
x_4_6_1_0 3.5735303605122226e-16
x_4_6_1_1 0
x_4_6_1_2 0
x_4_7_0_0 0
x_4_7_0_1 0
x_4_7_0_2 0
x_4_7_1_0 0
x_4_7_1_1 0
x_4_7_1_2 0
x_4_8_0_0 0
x_4_8_0_1 0
x_4_8_0_2 0
x_4_8_1_0 0
x_4_8_1_1 0
x_4_8_1_2 0
x_4_9_0_0 0
x_4_9_0_1 0
x_4_9_0_2 0
x_4_9_1_0 0
x_4_9_1_1 0
x_4_9_1_2 0
x_4_10_0_0 0
x_4_10_0_1 0
x_4_10_0_2 0
x_4_10_1_0 0
x_4_10_1_1 0
x_4_10_1_2 0
x_4_11_0_0 0
x_4_11_0_1 0
x_4_11_0_2 0
x_4_11_1_0 0
x_4_11_1_1 0
x_4_11_1_2 0
x_4_12_0_0 0
x_4_12_0_1 0
x_4_12_0_2 0
x_4_12_1_0 0
x_4_12_1_1 0
x_4_12_1_2 0
x_4_13_0_0 0
x_4_13_0_1 0
x_4_13_0_2 0
x_4_13_1_0 0
x_4_13_1_1 0
x_4_13_1_2 0
x_4_14_0_0 0
x_4_14_0_1 1
x_4_14_0_2 0
x_4_14_1_0 0
x_4_14_1_1 0
x_4_14_1_2 0
x_4_15_0_0 0
x_4_15_0_1 0
x_4_15_0_2 0
x_4_15_1_0 0
x_4_15_1_1 0
x_4_15_1_2 0
x_5_6_0_0 0
x_5_6_0_1 0
x_5_6_0_2 0
x_5_6_1_0 0
x_5_6_1_1 0
x_5_6_1_2 0
x_5_7_0_0 0
x_5_7_0_1 0
x_5_7_0_2 0
x_5_7_1_0 0
x_5_7_1_1 0
x_5_7_1_2 0
x_5_8_0_0 0
x_5_8_0_1 0
x_5_8_0_2 0
x_5_8_1_0 0
x_5_8_1_1 0
x_5_8_1_2 0
x_5_9_0_0 0
x_5_9_0_1 0
x_5_9_0_2 0
x_5_9_1_0 0
x_5_9_1_1 0
x_5_9_1_2 0
x_5_10_0_0 0
x_5_10_0_1 0
x_5_10_0_2 0
x_5_10_1_0 0
x_5_10_1_1 0
x_5_10_1_2 0
x_5_11_0_0 0
x_5_11_0_1 0
x_5_11_0_2 0
x_5_11_1_0 0
x_5_11_1_1 0
x_5_11_1_2 0
x_5_12_0_0 0
x_5_12_0_1 0
x_5_12_0_2 0
x_5_12_1_0 0
x_5_12_1_1 0
x_5_12_1_2 0
x_5_13_0_0 0
x_5_13_0_1 0
x_5_13_0_2 0
x_5_13_1_0 0
x_5_13_1_1 0
x_5_13_1_2 0
x_5_14_0_0 0
x_5_14_0_1 0
x_5_14_0_2 0
x_5_14_1_0 0
x_5_14_1_1 0
x_5_14_1_2 0
x_5_15_0_0 0
x_5_15_0_1 0
x_5_15_0_2 0
x_5_15_1_0 0
x_5_15_1_1 0
x_5_15_1_2 0
x_6_7_0_0 0
x_6_7_0_1 0
x_6_7_0_2 0
x_6_7_1_0 0
x_6_7_1_1 0
x_6_7_1_2 0
x_6_8_0_0 0
x_6_8_0_1 0
x_6_8_0_2 0
x_6_8_1_0 0
x_6_8_1_1 0
x_6_8_1_2 0
x_6_9_0_0 0
x_6_9_0_1 0
x_6_9_0_2 0
x_6_9_1_0 0
x_6_9_1_1 0
x_6_9_1_2 0
x_6_10_0_0 0
x_6_10_0_1 0
x_6_10_0_2 0
x_6_10_1_0 0
x_6_10_1_1 0
x_6_10_1_2 0
x_6_11_0_0 0
x_6_11_0_1 0
x_6_11_0_2 0
x_6_11_1_0 0
x_6_11_1_1 0
x_6_11_1_2 0
x_6_12_0_0 0
x_6_12_0_1 0
x_6_12_0_2 0
x_6_12_1_0 0
x_6_12_1_1 0
x_6_12_1_2 0
x_6_13_0_0 0
x_6_13_0_1 0
x_6_13_0_2 0
x_6_13_1_0 0
x_6_13_1_1 0
x_6_13_1_2 0
x_6_14_0_0 0
x_6_14_0_1 0
x_6_14_0_2 0
x_6_14_1_0 -7.8408341913200334e-15
x_6_14_1_1 0
x_6_14_1_2 0
x_6_15_0_0 0
x_6_15_0_1 0
x_6_15_0_2 0
x_6_15_1_0 0
x_6_15_1_1 1
x_6_15_1_2 0
x_7_8_0_0 9.9999999999999289e-01
x_7_8_0_1 0
x_7_8_0_2 0
x_7_8_1_0 0
x_7_8_1_1 0
x_7_8_1_2 0
x_7_9_0_0 0
x_7_9_0_1 0
x_7_9_0_2 0
x_7_9_1_0 0
x_7_9_1_1 0
x_7_9_1_2 0
x_7_10_0_0 9.9999999999999656e-01
x_7_10_0_1 0
x_7_10_0_2 1.65748824921545e-14
x_7_10_1_0 -1.7867651802561113e-16
x_7_10_1_1 0
x_7_10_1_2 0
x_7_11_0_0 -3.2196467714129540e-15
x_7_11_0_1 0
x_7_11_0_2 0
x_7_11_1_0 0
x_7_11_1_1 0
x_7_11_1_2 0
x_7_12_0_0 0
x_7_12_0_1 0
x_7_12_0_2 -3.3167912860676552e-15
x_7_12_1_0 0
x_7_12_1_1 0
x_7_12_1_2 0
x_7_13_0_0 0
x_7_13_0_1 0
x_7_13_0_2 0
x_7_13_1_0 0
x_7_13_1_1 0
x_7_13_1_2 0
x_7_14_0_0 0
x_7_14_0_1 0
x_7_14_0_2 0
x_7_14_1_0 0
x_7_14_1_1 0
x_7_14_1_2 0
x_7_15_0_0 0
x_7_15_0_1 0
x_7_15_0_2 0
x_7_15_1_0 0
x_7_15_1_1 0
x_7_15_1_2 0
x_8_9_0_0 0
x_8_9_0_1 0
x_8_9_0_2 0
x_8_9_1_0 0
x_8_9_1_1 0
x_8_9_1_2 0
x_8_10_0_0 0
x_8_10_0_1 0
x_8_10_0_2 0
x_8_10_1_0 0
x_8_10_1_1 0
x_8_10_1_2 0
x_8_11_0_0 1
x_8_11_0_1 0
x_8_11_0_2 0
x_8_11_1_0 0
x_8_11_1_1 0
x_8_11_1_2 0
x_8_12_0_0 0
x_8_12_0_1 0
x_8_12_0_2 0
x_8_12_1_0 0
x_8_12_1_1 0
x_8_12_1_2 -3.3167912860676552e-15
x_8_13_0_0 0
x_8_13_0_1 1.0000000000000213e+00
x_8_13_0_2 0
x_8_13_1_0 0
x_8_13_1_1 0
x_8_13_1_2 0
x_8_14_0_0 0
x_8_14_0_1 0
x_8_14_0_2 0
x_8_14_1_0 0
x_8_14_1_1 0
x_8_14_1_2 0
x_8_15_0_0 0
x_8_15_0_1 0
x_8_15_0_2 0
x_8_15_1_0 0
x_8_15_1_1 0
x_8_15_1_2 0
x_9_10_0_0 0
x_9_10_0_1 0
x_9_10_0_2 0
x_9_10_1_0 0
x_9_10_1_1 0
x_9_10_1_2 0
x_9_11_0_0 0
x_9_11_0_1 0
x_9_11_0_2 0
x_9_11_1_0 0
x_9_11_1_1 0
x_9_11_1_2 0
x_9_12_0_0 0
x_9_12_0_1 0
x_9_12_0_2 0
x_9_12_1_0 0
x_9_12_1_1 0
x_9_12_1_2 0
x_9_13_0_0 0
x_9_13_0_1 0
x_9_13_0_2 0
x_9_13_1_0 0
x_9_13_1_1 0
x_9_13_1_2 0
x_9_14_0_0 0
x_9_14_0_1 0
x_9_14_0_2 0
x_9_14_1_0 0
x_9_14_1_1 0
x_9_14_1_2 0
x_9_15_0_0 0
x_9_15_0_1 -1.2018164241567320e-14
x_9_15_0_2 0
x_9_15_1_0 0
x_9_15_1_1 9.9999999999997735e-01
x_9_15_1_2 3.3167912860676552e-15
x_10_11_0_0 0
x_10_11_0_1 0
x_10_11_0_2 0
x_10_11_1_0 0
x_10_11_1_1 0
x_10_11_1_2 0
x_10_12_0_0 0
x_10_12_0_1 0
x_10_12_0_2 0
x_10_12_1_0 0
x_10_12_1_1 0
x_10_12_1_2 0
x_10_13_0_0 0
x_10_13_0_1 0
x_10_13_0_2 0
x_10_13_1_0 0
x_10_13_1_1 0
x_10_13_1_2 0
x_10_14_0_0 0
x_10_14_0_1 0
x_10_14_0_2 0
x_10_14_1_0 0
x_10_14_1_1 0
x_10_14_1_2 0
x_10_15_0_0 0
x_10_15_0_1 0
x_10_15_0_2 0
x_10_15_1_0 0
x_10_15_1_1 0
x_10_15_1_2 0
x_11_12_0_0 0
x_11_12_0_1 0
x_11_12_0_2 3.3167912860676552e-15
x_11_12_1_0 0
x_11_12_1_1 0
x_11_12_1_2 0
x_11_13_0_0 1
x_11_13_0_1 0
x_11_13_0_2 -3.3167912860676552e-15
x_11_13_1_0 0
x_11_13_1_1 0
x_11_13_1_2 0
x_11_14_0_0 0
x_11_14_0_1 0
x_11_14_0_2 0
x_11_14_1_0 0
x_11_14_1_1 0
x_11_14_1_2 0
x_11_15_0_0 0
x_11_15_0_1 0
x_11_15_0_2 0
x_11_15_1_0 0
x_11_15_1_1 0
x_11_15_1_2 0
x_12_13_0_0 1.0000000000000226e+00
x_12_13_0_1 0
x_12_13_0_2 0
x_12_13_1_0 0
x_12_13_1_1 0
x_12_13_1_2 3.3167912860676552e-15
x_12_14_0_0 0
x_12_14_0_1 0
x_12_14_0_2 0
x_12_14_1_0 0
x_12_14_1_1 0
x_12_14_1_2 0
x_12_15_0_0 0
x_12_15_0_1 0
x_12_15_0_2 0
x_12_15_1_0 0
x_12_15_1_1 0
x_12_15_1_2 0
x_13_14_0_0 0
x_13_14_0_1 0
x_13_14_0_2 0
x_13_14_1_0 0
x_13_14_1_1 0
x_13_14_1_2 0
x_13_15_0_0 0
x_13_15_0_1 0
x_13_15_0_2 0
x_13_15_1_0 0
x_13_15_1_1 0
x_13_15_1_2 0
x_14_15_0_0 0
x_14_15_0_1 0
x_14_15_0_2 0
x_14_15_1_0 0
x_14_15_1_1 0
x_14_15_1_2 0
